(set-info :source |printed by MathSAT|)
(declare-fun call__main_._H1_ () Bool)
(declare-fun call__main_.call_controleur.diff () Int)
(declare-fun call__main_.flby3 () Int)
(declare-fun call__main_.diff0 () Int)
(declare-fun nB0 () Int)
(declare-fun call__main_.call_hypothese2.flby2 () Int)
(declare-fun retard1 () Bool)
(declare-fun call__main_.call_hypothese.c () Int)
(declare-fun call__main_.nS () Int)
(declare-fun call__main_.avance1 () Bool)
(declare-fun call__main_.call_controleur.flby2 () Bool)
(declare-fun call__main_.call_controleur.flby () Bool)
(declare-fun call__main_.call_controleur2.flby () Bool)
(declare-fun call__main_.avance0 () Bool)
(declare-fun ast () Bool)
(declare-fun avance1 () Bool)
(declare-fun _OK_ () Bool)
(declare-fun call__main_.call_hypothese.flby2 () Int)
(declare-fun call__main_.retard0 () Bool)
(declare-fun diff1 () Int)
(declare-fun call__main_.nB1 () Int)
(declare-fun call__main_._H0_ () Bool)
(declare-fun call__main_.retard1 () Bool)
(declare-fun call__main_.nB0 () Int)
(declare-fun call__main_.call_hypothese2.c () Int)
(declare-fun call__main_.call_controleur2.retard () Bool)
(declare-fun flby () Bool)
(declare-fun call__main_.call_controleur.avance () Bool)
(declare-fun call_Sofar.Sofar () Bool)
(declare-fun call__main_.call_controleur2.avance () Bool)
(declare-fun call_Sofar.flby () Bool)
(declare-fun call__main_.call_controleur2.flby2 () Bool)
(declare-fun call__main_.call_hypothese.flby () Bool)
(declare-fun call__main_.diff1 () Int)
(declare-fun call__main_.ast () Bool)
(declare-fun avance0 () Bool)
(declare-fun call__main_.call_controleur2.diff () Int)
(declare-fun nS () Int)
(declare-fun call__main_.call_hypothese.ok () Bool)
(declare-fun call__main_.call_hypothese2.flby () Bool)
(declare-fun call__main_.flby () Int)
(declare-fun diff0 () Int)
(declare-fun nB1 () Int)
(declare-fun call__main_.call_controleur.retard () Bool)
(declare-fun call__main_.flby2 () Int)
(declare-fun call__main_.call_hypothese2.ok () Bool)
(declare-fun retard0 () Bool)
(define-fun .def_618 () Bool (= call_Sofar.flby call_Sofar.Sofar))
(define-fun .def_615 () Bool (= call__main_.call_controleur2.flby2 call__main_.call_controleur2.retard))
(define-fun .def_613 () Bool (= call__main_.call_controleur2.flby call__main_.call_controleur2.avance))
(define-fun .def_608 () Int (* (- 1) call__main_.call_controleur2.diff))
(define-fun .def_596 () Int (* (- 1) call__main_.nS))
(define-fun .def_609 () Int (+ .def_596 .def_608))
(define-fun .def_610 () Int (+ call__main_.nB1 .def_609))
(define-fun .def_611 () Bool (= .def_610 0))
(define-fun .def_603 () Bool (= call__main_.call_controleur.flby2 call__main_.call_controleur.retard))
(define-fun .def_601 () Bool (= call__main_.call_controleur.flby call__main_.call_controleur.avance))
(define-fun .def_595 () Int (* (- 1) call__main_.call_controleur.diff))
(define-fun .def_597 () Int (+ .def_596 .def_595))
(define-fun .def_598 () Int (+ call__main_.nB0 .def_597))
(define-fun .def_599 () Bool (= .def_598 0))
(define-fun .def_590 () Bool (= call__main_.call_hypothese2.flby2 call__main_.call_hypothese2.c))
(define-fun .def_587 () Bool (= call__main_.call_hypothese2.flby call__main_.call_hypothese2.ok))
(define-fun .def_585 () Bool (= call__main_.call_hypothese.flby2 call__main_.call_hypothese.c))
(define-fun .def_582 () Bool (= call__main_.call_hypothese.flby call__main_.call_hypothese.ok))
(define-fun .def_580 () Bool (= call__main_._H1_ call__main_.call_hypothese2.ok))
(define-fun .def_577 () Bool (= call__main_._H0_ call__main_.call_hypothese.ok))
(define-fun .def_574 () Bool (= call__main_.retard1 call__main_.call_controleur2.retard))
(define-fun .def_571 () Bool (= call__main_.retard0 call__main_.call_controleur.retard))
(define-fun .def_568 () Bool (= call__main_.avance1 call__main_.call_controleur2.avance))
(define-fun .def_565 () Bool (= call__main_.avance0 call__main_.call_controleur.avance))
(define-fun .def_562 () Bool (= call__main_.diff1 call__main_.call_controleur2.diff))
(define-fun .def_559 () Bool (= call__main_.diff0 call__main_.call_controleur.diff))
(define-fun .def_556 () Bool (= call__main_.flby3 call__main_.nS))
(define-fun .def_554 () Bool (= call__main_.flby2 call__main_.nB1))
(define-fun .def_552 () Bool (= call__main_.flby call__main_.nB0))
(define-fun .def_549 () Bool (and call__main_._H0_ call__main_._H1_))
(define-fun .def_550 () Bool (= call__main_.ast .def_549))
(define-fun .def_545 () Bool (= ast call__main_.ast))
(define-fun .def_542 () Bool (= retard1 call__main_.retard1))
(define-fun .def_538 () Bool (= retard0 call__main_.retard0))
(define-fun .def_534 () Bool (= avance1 call__main_.avance1))
(define-fun .def_530 () Bool (= avance0 call__main_.avance0))
(define-fun .def_526 () Bool (= diff1 call__main_.diff1))
(define-fun .def_522 () Bool (= diff0 call__main_.diff0))
(define-fun .def_518 () Bool (= nS call__main_.nS))
(define-fun .def_514 () Bool (= nB1 call__main_.nB1))
(define-fun .def_510 () Bool (= nB0 call__main_.nB0))
(define-fun .def_507 () Bool (= flby _OK_))
(define-fun .def_511 () Bool (and .def_507 .def_510))
(define-fun .def_515 () Bool (and .def_511 .def_514))
(define-fun .def_519 () Bool (and .def_515 .def_518))
(define-fun .def_523 () Bool (and .def_519 .def_522))
(define-fun .def_527 () Bool (and .def_523 .def_526))
(define-fun .def_531 () Bool (and .def_527 .def_530))
(define-fun .def_535 () Bool (and .def_531 .def_534))
(define-fun .def_539 () Bool (and .def_535 .def_538))
(define-fun .def_543 () Bool (and .def_539 .def_542))
(define-fun .def_546 () Bool (and .def_543 .def_545))
(define-fun .def_551 () Bool (and .def_546 .def_550))
(define-fun .def_553 () Bool (and .def_551 .def_552))
(define-fun .def_555 () Bool (and .def_553 .def_554))
(define-fun .def_557 () Bool (and .def_555 .def_556))
(define-fun .def_560 () Bool (and .def_557 .def_559))
(define-fun .def_563 () Bool (and .def_560 .def_562))
(define-fun .def_566 () Bool (and .def_563 .def_565))
(define-fun .def_569 () Bool (and .def_566 .def_568))
(define-fun .def_572 () Bool (and .def_569 .def_571))
(define-fun .def_575 () Bool (and .def_572 .def_574))
(define-fun .def_578 () Bool (and .def_575 .def_577))
(define-fun .def_581 () Bool (and .def_578 .def_580))
(define-fun .def_583 () Bool (and .def_581 .def_582))
(define-fun .def_586 () Bool (and .def_583 .def_585))
(define-fun .def_588 () Bool (and .def_586 .def_587))
(define-fun .def_591 () Bool (and .def_588 .def_590))
(define-fun .def_600 () Bool (and .def_591 .def_599))
(define-fun .def_602 () Bool (and .def_600 .def_601))
(define-fun .def_604 () Bool (and .def_602 .def_603))
(define-fun .def_612 () Bool (and .def_604 .def_611))
(define-fun .def_614 () Bool (and .def_612 .def_613))
(define-fun .def_616 () Bool (and .def_614 .def_615))
(define-fun .def_619 () Bool (and .def_616 .def_618))
(define-fun .def_504 () Bool (= ast call_Sofar.flby))
(define-fun .def_500 () Bool (not call__main_.call_controleur2.flby2))
(define-fun .def_497 () Bool (not call__main_.call_controleur2.flby))
(define-fun .def_494 () Bool (not call__main_.call_controleur.flby2))
(define-fun .def_491 () Bool (not call__main_.call_controleur.flby))
(define-fun .def_488 () Bool (= call__main_.call_hypothese2.flby2 0))
(define-fun .def_483 () Bool (= call__main_.call_hypothese.flby2 0))
(define-fun .def_478 () Bool (= call__main_.flby3 0))
(define-fun .def_475 () Bool (= call__main_.flby2 0))
(define-fun .def_471 () Bool (= call__main_.flby 0))
(define-fun .def_473 () Bool (and .def_471 flby))
(define-fun .def_476 () Bool (and .def_473 .def_475))
(define-fun .def_479 () Bool (and .def_476 .def_478))
(define-fun .def_481 () Bool (and .def_479 call__main_.call_hypothese.flby))
(define-fun .def_484 () Bool (and .def_481 .def_483))
(define-fun .def_486 () Bool (and .def_484 call__main_.call_hypothese2.flby))
(define-fun .def_489 () Bool (and .def_486 .def_488))
(define-fun .def_492 () Bool (and .def_489 .def_491))
(define-fun .def_495 () Bool (and .def_492 .def_494))
(define-fun .def_498 () Bool (and .def_495 .def_497))
(define-fun .def_501 () Bool (and .def_498 .def_500))
(define-fun .def_505 () Bool (and .def_501 .def_504))
(define-fun .def_620 () Bool (and .def_505 .def_619))
(assert .def_620)
